Copyright (C) 2013-2015, Filipe Brandao
Build (method = -2)
  #dp: 1716
  Step-3' Graph: 110 vertices and 933 arcs (0.00s)
  Step-4' Graph: 98 vertices and 909 arcs (0.00s)
  #V4/#V3 = 0.89
  #A4/#A3 = 0.97
Ready! (0.00s)
Optimize a model with 142 rows, 910 columns and 2538 nonzeros
Found heuristic solution: objective 31
Presolve removed 26 rows and 28 columns
Presolve time: 0.01s
Presolved: 116 rows, 882 columns, 2466 nonzeros
Variable types: 0 continuous, 882 integer (735 binary)
Optimize a model with 116 rows, 882 columns and 2466 nonzeros
Presolved: 116 rows, 882 columns, 2466 nonzeros

Root barrier log...

Ordering time: 0.00s

Barrier statistics:
 AA' NZ     : 1.420e+03
 Factor NZ  : 3.496e+03
 Factor Ops : 1.317e+05 (less than 1 second per iteration)
 Threads    : 1

                  Objective                Residual
Iter       Primal          Dual         Primal    Dual     Compl     Time
   0   3.89117487e+02 -1.73636861e+03  1.79e+03 1.13e-01  4.95e+00     0s
   1   1.10337739e+02 -4.64720702e+02  2.26e+02 4.44e-16  7.64e-01     0s
   2   5.19249749e+01 -7.70966664e+01  3.52e+01 3.89e-16  1.36e-01     0s
   3   3.17061167e+01 -5.42094843e+00  2.53e+00 3.75e-16  2.48e-02     0s
   4   2.81548070e+01  1.55025980e+01  8.80e-02 2.22e-16  7.25e-03     0s
   5   2.62342087e+01  1.96040232e+01  3.73e-02 2.69e-16  3.78e-03     0s
   6   2.48876683e+01  2.12456938e+01  1.66e-02 1.80e-16  2.07e-03     0s
   7   2.42636425e+01  2.24203017e+01  8.65e-03 1.52e-16  1.05e-03     0s
   8   2.35478990e+01  2.30497146e+01  5.88e-04 3.33e-16  2.83e-04     0s
   9   2.35015526e+01  2.34992632e+01  8.22e-13 3.33e-16  1.30e-06     0s
  10   2.35000016e+01  2.34999993e+01  4.62e-14 3.33e-16  1.30e-09     0s
  11   2.35000000e+01  2.35000000e+01  4.26e-14 3.33e-16  3.44e-15     0s

Barrier solved model in 11 iterations and 0.01 seconds
Optimal objective 2.35000000e+01


Root relaxation: objective 2.350000e+01, 294 iterations, 0.01 seconds

    Nodes    |    Current Node    |     Objective Bounds      |     Work
 Expl Unexpl |  Obj  Depth IntInf | Incumbent    BestBd   Gap | It/Node Time

     0     0   23.50000    0    3   31.00000   23.50000  24.2%     -    0s
H    0     0                      24.0000000   23.50000  2.08%     -    0s

Explored 0 nodes (386 simplex iterations) in 0.02 seconds
Thread count was 1 (of 4 available processors)

Optimal solution found (tolerance 0.00e+00)
Best objective 2.400000000000e+01, best bound 2.400000000000e+01, gap 0.0%
Preprocessing time: 0.00 seconds
Gurobi run time: 0.02 seconds
Total run time: 0.02 seconds
Objective: 24
Solution:
1 x [i=1, i=36]
1 x [i=2, i=34]
1 x [i=3, i=43]
1 x [i=4, i=30]
1 x [i=4, i=32]
1 x [i=5, i=42]
1 x [i=6, i=29]
1 x [i=7]
1 x [i=8, i=35]
1 x [i=9, i=27]
1 x [i=10, i=38]
1 x [i=10, i=39, i=40]
1 x [i=11, i=28]
1 x [i=12, i=33, i=44]
1 x [i=13, i=24]
1 x [i=13, i=25]
1 x [i=13, i=26]
1 x [i=14, i=37, i=41]
1 x [i=15, i=23]
1 x [i=16, i=22]
2 x [i=17, i=21]
1 x [i=18, i=31]
1 x [i=19, i=20]
